20
30.0
0 19 1.99 3.0
1 18 1.99 3.0
2 17 1.98 3.0
3 16 1.71 3.0
4 15 1.99 3.0
5 14 1.82 3.0
6 13 1.93 3.0
7 12 1.76 3.0
8 11 1.84 3.0
9 10 1.78 3.0
10 9 2.04 3.0
11 8 1.93 3.0
12 7 1.75 3.0
13 6 1.89 3.0
14 5 1.9 3.0
15 4 1.78 3.0
16 3 1.57 3.0
17 2 1.94 3.0
18 1 0.69 3.0
